p cnf 336 1337
1 2 3 4 5 6 0
-217 -218 0
-217 -219 0
-218 -219 0
-220 -221 0
-1 217 0
-1 220 0
-2 217 0
-2 221 0
-3 218 0
-3 220 0
-4 218 0
-4 221 0
-5 219 0
-5 220 0
-6 219 0
-6 221 0
-1 37 0
-1 7 0
-2 38 0
-2 8 0
-3 39 0
-3 9 0
-4 40 0
-4 10 0
-5 41 0
-5 11 0
-6 42 0
-6 12 0
7 8 9 10 11 12 0
-222 -223 0
-222 -224 0
-223 -224 0
-225 -226 0
-7 222 0
-7 225 0
-8 222 0
-8 226 0
-9 223 0
-9 225 0
-10 223 0
-10 226 0
-11 224 0
-11 225 0
-12 224 0
-12 226 0
-7 1 13 0
-7 1 43 0
-7 13 43 0
-8 2 14 0
-8 2 44 0
-8 14 44 0
-9 3 15 0
-9 3 45 0
-9 15 45 0
-10 4 16 0
-10 4 46 0
-10 16 46 0
-11 5 17 0
-11 5 47 0
-11 17 47 0
-12 6 18 0
-12 6 48 0
-12 18 48 0
-7 -1 -13 -43 0
-8 -2 -14 -44 0
-9 -3 -15 -45 0
-10 -4 -16 -46 0
-11 -5 -17 -47 0
-12 -6 -18 -48 0
13 14 15 16 17 18 0
-227 -228 0
-227 -229 0
-228 -229 0
-230 -231 0
-13 227 0
-13 230 0
-14 227 0
-14 231 0
-15 228 0
-15 230 0
-16 228 0
-16 231 0
-17 229 0
-17 230 0
-18 229 0
-18 231 0
-13 7 19 0
-13 7 49 0
-13 19 49 0
-14 8 20 0
-14 8 50 0
-14 20 50 0
-15 9 21 0
-15 9 51 0
-15 21 51 0
-16 10 22 0
-16 10 52 0
-16 22 52 0
-17 11 23 0
-17 11 53 0
-17 23 53 0
-18 12 24 0
-18 12 54 0
-18 24 54 0
-13 -7 -19 -49 0
-14 -8 -20 -50 0
-15 -9 -21 -51 0
-16 -10 -22 -52 0
-17 -11 -23 -53 0
-18 -12 -24 -54 0
19 20 21 22 23 24 0
-232 -233 0
-232 -234 0
-233 -234 0
-235 -236 0
-19 232 0
-19 235 0
-20 232 0
-20 236 0
-21 233 0
-21 235 0
-22 233 0
-22 236 0
-23 234 0
-23 235 0
-24 234 0
-24 236 0
-19 13 25 0
-19 13 55 0
-19 25 55 0
-20 14 26 0
-20 14 56 0
-20 26 56 0
-21 15 27 0
-21 15 57 0
-21 27 57 0
-22 16 28 0
-22 16 58 0
-22 28 58 0
-23 17 29 0
-23 17 59 0
-23 29 59 0
-24 18 30 0
-24 18 60 0
-24 30 60 0
-19 -13 -25 -55 0
-20 -14 -26 -56 0
-21 -15 -27 -57 0
-22 -16 -28 -58 0
-23 -17 -29 -59 0
-24 -18 -30 -60 0
25 26 27 28 29 30 0
-237 -238 0
-237 -239 0
-238 -239 0
-240 -241 0
-25 237 0
-25 240 0
-26 237 0
-26 241 0
-27 238 0
-27 240 0
-28 238 0
-28 241 0
-29 239 0
-29 240 0
-30 239 0
-30 241 0
-25 19 31 0
-25 19 61 0
-25 31 61 0
-26 20 32 0
-26 20 62 0
-26 32 62 0
-27 21 33 0
-27 21 63 0
-27 33 63 0
-28 22 34 0
-28 22 64 0
-28 34 64 0
-29 23 35 0
-29 23 65 0
-29 35 65 0
-30 24 36 0
-30 24 66 0
-30 36 66 0
-25 -19 -31 -61 0
-26 -20 -32 -62 0
-27 -21 -33 -63 0
-28 -22 -34 -64 0
-29 -23 -35 -65 0
-30 -24 -36 -66 0
31 0
-32 0
-33 0
-34 0
-35 0
-36 0
67 25 0
-67 -25 0
37 0
-38 0
-39 0
-40 0
-41 0
-42 0
73 43 1 0
-73 -43 0
-73 -1 0
-43 -1 0
43 44 45 46 47 48 0
-242 -243 0
-242 -244 0
-243 -244 0
-245 -246 0
-43 242 0
-43 245 0
-44 242 0
-44 246 0
-45 243 0
-45 245 0
-46 243 0
-46 246 0
-47 244 0
-47 245 0
-48 244 0
-48 246 0
-43 79 49 7 0
-43 79 49 37 0
-43 79 7 37 0
-43 49 7 37 0
-44 80 50 8 0
-44 80 50 38 0
-44 80 8 38 0
-44 50 8 38 0
-45 81 51 9 0
-45 81 51 39 0
-45 81 9 39 0
-45 51 9 39 0
-46 82 52 10 0
-46 82 52 40 0
-46 82 10 40 0
-46 52 10 40 0
-47 83 53 11 0
-47 83 53 41 0
-47 83 11 41 0
-47 53 11 41 0
-48 84 54 12 0
-48 84 54 42 0
-48 84 12 42 0
-48 54 12 42 0
-43 -79 -49 -7 0
-43 -79 -49 -37 0
-43 -79 -7 -37 0
-43 -49 -7 -37 0
-44 -80 -50 -8 0
-44 -80 -50 -38 0
-44 -80 -8 -38 0
-44 -50 -8 -38 0
-45 -81 -51 -9 0
-45 -81 -51 -39 0
-45 -81 -9 -39 0
-45 -51 -9 -39 0
-46 -82 -52 -10 0
-46 -82 -52 -40 0
-46 -82 -10 -40 0
-46 -52 -10 -40 0
-47 -83 -53 -11 0
-47 -83 -53 -41 0
-47 -83 -11 -41 0
-47 -53 -11 -41 0
-48 -84 -54 -12 0
-48 -84 -54 -42 0
-48 -84 -12 -42 0
-48 -54 -12 -42 0
50 0
-49 0
-51 0
-52 0
-53 0
-54 0
86 56 14 44 0
-86 -56 0
-86 -14 0
-86 -44 0
-56 -14 0
-56 -44 0
-14 -44 0
55 56 57 58 59 60 0
-247 -248 0
-247 -249 0
-248 -249 0
-250 -251 0
-55 247 0
-55 250 0
-56 247 0
-56 251 0
-57 248 0
-57 250 0
-58 248 0
-58 251 0
-59 249 0
-59 250 0
-60 249 0
-60 251 0
-55 91 61 19 0
-55 91 61 49 0
-55 91 19 49 0
-55 61 19 49 0
-56 92 62 20 0
-56 92 62 50 0
-56 92 20 50 0
-56 62 20 50 0
-57 93 63 21 0
-57 93 63 51 0
-57 93 21 51 0
-57 63 21 51 0
-58 94 64 22 0
-58 94 64 52 0
-58 94 22 52 0
-58 64 22 52 0
-59 95 65 23 0
-59 95 65 53 0
-59 95 23 53 0
-59 65 23 53 0
-60 96 66 24 0
-60 96 66 54 0
-60 96 24 54 0
-60 66 24 54 0
-55 -91 -61 -19 0
-55 -91 -61 -49 0
-55 -91 -19 -49 0
-55 -61 -19 -49 0
-56 -92 -62 -20 0
-56 -92 -62 -50 0
-56 -92 -20 -50 0
-56 -62 -20 -50 0
-57 -93 -63 -21 0
-57 -93 -63 -51 0
-57 -93 -21 -51 0
-57 -63 -21 -51 0
-58 -94 -64 -22 0
-58 -94 -64 -52 0
-58 -94 -22 -52 0
-58 -64 -22 -52 0
-59 -95 -65 -23 0
-59 -95 -65 -53 0
-59 -95 -23 -53 0
-59 -65 -23 -53 0
-60 -96 -66 -24 0
-60 -96 -66 -54 0
-60 -96 -24 -54 0
-60 -66 -24 -54 0
63 0
-61 0
-62 0
-64 0
-65 0
-66 0
99 69 27 57 0
-99 -69 0
-99 -27 0
-99 -57 0
-69 -27 0
-69 -57 0
-27 -57 0
70 0
-67 0
-68 0
-69 0
-71 0
-72 0
106 64 34 0
-106 -64 0
-106 -34 0
-64 -34 0
74 0
-73 0
-75 0
-76 0
-77 0
-78 0
110 80 38 0
-110 -80 0
-110 -38 0
-80 -38 0
79 80 81 82 83 84 0
-252 -253 0
-252 -254 0
-253 -254 0
-255 -256 0
-79 252 0
-79 255 0
-80 252 0
-80 256 0
-81 253 0
-81 255 0
-82 253 0
-82 256 0
-83 254 0
-83 255 0
-84 254 0
-84 256 0
-79 115 85 43 0
-79 115 85 73 0
-79 115 43 73 0
-79 85 43 73 0
-80 116 86 44 0
-80 116 86 74 0
-80 116 44 74 0
-80 86 44 74 0
-81 117 87 45 0
-81 117 87 75 0
-81 117 45 75 0
-81 87 45 75 0
-82 118 88 46 0
-82 118 88 76 0
-82 118 46 76 0
-82 88 46 76 0
-83 119 89 47 0
-83 119 89 77 0
-83 119 47 77 0
-83 89 47 77 0
-84 120 90 48 0
-84 120 90 78 0
-84 120 48 78 0
-84 90 48 78 0
-79 -115 -85 -43 0
-79 -115 -85 -73 0
-79 -115 -43 -73 0
-79 -85 -43 -73 0
-80 -116 -86 -44 0
-80 -116 -86 -74 0
-80 -116 -44 -74 0
-80 -86 -44 -74 0
-81 -117 -87 -45 0
-81 -117 -87 -75 0
-81 -117 -45 -75 0
-81 -87 -45 -75 0
-82 -118 -88 -46 0
-82 -118 -88 -76 0
-82 -118 -46 -76 0
-82 -88 -46 -76 0
-83 -119 -89 -47 0
-83 -119 -89 -77 0
-83 -119 -47 -77 0
-83 -89 -47 -77 0
-84 -120 -90 -48 0
-84 -120 -90 -78 0
-84 -120 -48 -78 0
-84 -90 -48 -78 0
88 0
-85 0
-86 0
-87 0
-89 0
-90 0
124 94 52 82 0
-124 -94 0
-124 -52 0
-124 -82 0
-94 -52 0
-94 -82 0
-52 -82 0
93 0
-91 0
-92 0
-94 0
-95 0
-96 0
129 99 57 87 0
-129 -99 0
-129 -57 0
-129 -87 0
-99 -57 0
-99 -87 0
-57 -87 0
97 98 99 100 101 102 0
-257 -258 0
-257 -259 0
-258 -259 0
-260 -261 0
-97 257 0
-97 260 0
-98 257 0
-98 261 0
-99 258 0
-99 260 0
-100 258 0
-100 261 0
-101 259 0
-101 260 0
-102 259 0
-102 261 0
-97 133 103 61 0
-97 133 103 91 0
-97 133 61 91 0
-97 103 61 91 0
-98 134 104 62 0
-98 134 104 92 0
-98 134 62 92 0
-98 104 62 92 0
-99 135 105 63 0
-99 135 105 93 0
-99 135 63 93 0
-99 105 63 93 0
-100 136 106 64 0
-100 136 106 94 0
-100 136 64 94 0
-100 106 64 94 0
-101 137 107 65 0
-101 137 107 95 0
-101 137 65 95 0
-101 107 65 95 0
-102 138 108 66 0
-102 138 108 96 0
-102 138 66 96 0
-102 108 66 96 0
-97 -133 -103 -61 0
-97 -133 -103 -91 0
-97 -133 -61 -91 0
-97 -103 -61 -91 0
-98 -134 -104 -62 0
-98 -134 -104 -92 0
-98 -134 -62 -92 0
-98 -104 -62 -92 0
-99 -135 -105 -63 0
-99 -135 -105 -93 0
-99 -135 -63 -93 0
-99 -105 -63 -93 0
-100 -136 -106 -64 0
-100 -136 -106 -94 0
-100 -136 -64 -94 0
-100 -106 -64 -94 0
-101 -137 -107 -65 0
-101 -137 -107 -95 0
-101 -137 -65 -95 0
-101 -107 -65 -95 0
-102 -138 -108 -66 0
-102 -138 -108 -96 0
-102 -138 -66 -96 0
-102 -108 -66 -96 0
103 104 105 106 107 108 0
-262 -263 0
-262 -264 0
-263 -264 0
-265 -266 0
-103 262 0
-103 265 0
-104 262 0
-104 266 0
-105 263 0
-105 265 0
-106 263 0
-106 266 0
-107 264 0
-107 265 0
-108 264 0
-108 266 0
-103 139 97 0
-103 139 67 0
-103 97 67 0
-104 140 98 0
-104 140 68 0
-104 98 68 0
-105 141 99 0
-105 141 69 0
-105 99 69 0
-106 142 100 0
-106 142 70 0
-106 100 70 0
-107 143 101 0
-107 143 71 0
-107 101 71 0
-108 144 102 0
-108 144 72 0
-108 102 72 0
-103 -139 -97 -67 0
-104 -140 -98 -68 0
-105 -141 -99 -69 0
-106 -142 -100 -70 0
-107 -143 -101 -71 0
-108 -144 -102 -72 0
113 0
-109 0
-110 0
-111 0
-112 0
-114 0
149 119 77 0
-149 -119 0
-149 -77 0
-119 -77 0
120 0
-115 0
-116 0
-117 0
-118 0
-119 0
156 126 84 114 0
-156 -126 0
-156 -84 0
-156 -114 0
-126 -84 0
-126 -114 0
-84 -114 0
121 122 123 124 125 126 0
-267 -268 0
-267 -269 0
-268 -269 0
-270 -271 0
-121 267 0
-121 270 0
-122 267 0
-122 271 0
-123 268 0
-123 270 0
-124 268 0
-124 271 0
-125 269 0
-125 270 0
-126 269 0
-126 271 0
-121 157 127 85 0
-121 157 127 115 0
-121 157 85 115 0
-121 127 85 115 0
-122 158 128 86 0
-122 158 128 116 0
-122 158 86 116 0
-122 128 86 116 0
-123 159 129 87 0
-123 159 129 117 0
-123 159 87 117 0
-123 129 87 117 0
-124 160 130 88 0
-124 160 130 118 0
-124 160 88 118 0
-124 130 88 118 0
-125 161 131 89 0
-125 161 131 119 0
-125 161 89 119 0
-125 131 89 119 0
-126 162 132 90 0
-126 162 132 120 0
-126 162 90 120 0
-126 132 90 120 0
-121 -157 -127 -85 0
-121 -157 -127 -115 0
-121 -157 -85 -115 0
-121 -127 -85 -115 0
-122 -158 -128 -86 0
-122 -158 -128 -116 0
-122 -158 -86 -116 0
-122 -128 -86 -116 0
-123 -159 -129 -87 0
-123 -159 -129 -117 0
-123 -159 -87 -117 0
-123 -129 -87 -117 0
-124 -160 -130 -88 0
-124 -160 -130 -118 0
-124 -160 -88 -118 0
-124 -130 -88 -118 0
-125 -161 -131 -89 0
-125 -161 -131 -119 0
-125 -161 -89 -119 0
-125 -131 -89 -119 0
-126 -162 -132 -90 0
-126 -162 -132 -120 0
-126 -162 -90 -120 0
-126 -132 -90 -120 0
127 128 129 130 131 132 0
-272 -273 0
-272 -274 0
-273 -274 0
-275 -276 0
-127 272 0
-127 275 0
-128 272 0
-128 276 0
-129 273 0
-129 275 0
-130 273 0
-130 276 0
-131 274 0
-131 275 0
-132 274 0
-132 276 0
-127 163 133 91 0
-127 163 133 121 0
-127 163 91 121 0
-127 133 91 121 0
-128 164 134 92 0
-128 164 134 122 0
-128 164 92 122 0
-128 134 92 122 0
-129 165 135 93 0
-129 165 135 123 0
-129 165 93 123 0
-129 135 93 123 0
-130 166 136 94 0
-130 166 136 124 0
-130 166 94 124 0
-130 136 94 124 0
-131 167 137 95 0
-131 167 137 125 0
-131 167 95 125 0
-131 137 95 125 0
-132 168 138 96 0
-132 168 138 126 0
-132 168 96 126 0
-132 138 96 126 0
-127 -163 -133 -91 0
-127 -163 -133 -121 0
-127 -163 -91 -121 0
-127 -133 -91 -121 0
-128 -164 -134 -92 0
-128 -164 -134 -122 0
-128 -164 -92 -122 0
-128 -134 -92 -122 0
-129 -165 -135 -93 0
-129 -165 -135 -123 0
-129 -165 -93 -123 0
-129 -135 -93 -123 0
-130 -166 -136 -94 0
-130 -166 -136 -124 0
-130 -166 -94 -124 0
-130 -136 -94 -124 0
-131 -167 -137 -95 0
-131 -167 -137 -125 0
-131 -167 -95 -125 0
-131 -137 -95 -125 0
-132 -168 -138 -96 0
-132 -168 -138 -126 0
-132 -168 -96 -126 0
-132 -138 -96 -126 0
133 134 135 136 137 138 0
-277 -278 0
-277 -279 0
-278 -279 0
-280 -281 0
-133 277 0
-133 280 0
-134 277 0
-134 281 0
-135 278 0
-135 280 0
-136 278 0
-136 281 0
-137 279 0
-137 280 0
-138 279 0
-138 281 0
-133 169 139 97 0
-133 169 139 127 0
-133 169 97 127 0
-133 139 97 127 0
-134 170 140 98 0
-134 170 140 128 0
-134 170 98 128 0
-134 140 98 128 0
-135 171 141 99 0
-135 171 141 129 0
-135 171 99 129 0
-135 141 99 129 0
-136 172 142 100 0
-136 172 142 130 0
-136 172 100 130 0
-136 142 100 130 0
-137 173 143 101 0
-137 173 143 131 0
-137 173 101 131 0
-137 143 101 131 0
-138 174 144 102 0
-138 174 144 132 0
-138 174 102 132 0
-138 144 102 132 0
-133 -169 -139 -97 0
-133 -169 -139 -127 0
-133 -169 -97 -127 0
-133 -139 -97 -127 0
-134 -170 -140 -98 0
-134 -170 -140 -128 0
-134 -170 -98 -128 0
-134 -140 -98 -128 0
-135 -171 -141 -99 0
-135 -171 -141 -129 0
-135 -171 -99 -129 0
-135 -141 -99 -129 0
-136 -172 -142 -100 0
-136 -172 -142 -130 0
-136 -172 -100 -130 0
-136 -142 -100 -130 0
-137 -173 -143 -101 0
-137 -173 -143 -131 0
-137 -173 -101 -131 0
-137 -143 -101 -131 0
-138 -174 -144 -102 0
-138 -174 -144 -132 0
-138 -174 -102 -132 0
-138 -144 -102 -132 0
143 0
-139 0
-140 0
-141 0
-142 0
-144 0
179 137 107 0
-179 -137 0
-179 -107 0
-137 -107 0
145 146 147 148 149 150 0
-282 -283 0
-282 -284 0
-283 -284 0
-285 -286 0
-145 282 0
-145 285 0
-146 282 0
-146 286 0
-147 283 0
-147 285 0
-148 283 0
-148 286 0
-149 284 0
-149 285 0
-150 284 0
-150 286 0
-145 181 151 0
-145 181 109 0
-145 151 109 0
-146 182 152 0
-146 182 110 0
-146 152 110 0
-147 183 153 0
-147 183 111 0
-147 153 111 0
-148 184 154 0
-148 184 112 0
-148 154 112 0
-149 185 155 0
-149 185 113 0
-149 155 113 0
-150 186 156 0
-150 186 114 0
-150 156 114 0
-145 -181 -151 -109 0
-146 -182 -152 -110 0
-147 -183 -153 -111 0
-148 -184 -154 -112 0
-149 -185 -155 -113 0
-150 -186 -156 -114 0
151 152 153 154 155 156 0
-287 -288 0
-287 -289 0
-288 -289 0
-290 -291 0
-151 287 0
-151 290 0
-152 287 0
-152 291 0
-153 288 0
-153 290 0
-154 288 0
-154 291 0
-155 289 0
-155 290 0
-156 289 0
-156 291 0
-151 187 157 115 0
-151 187 157 145 0
-151 187 115 145 0
-151 157 115 145 0
-152 188 158 116 0
-152 188 158 146 0
-152 188 116 146 0
-152 158 116 146 0
-153 189 159 117 0
-153 189 159 147 0
-153 189 117 147 0
-153 159 117 147 0
-154 190 160 118 0
-154 190 160 148 0
-154 190 118 148 0
-154 160 118 148 0
-155 191 161 119 0
-155 191 161 149 0
-155 191 119 149 0
-155 161 119 149 0
-156 192 162 120 0
-156 192 162 150 0
-156 192 120 150 0
-156 162 120 150 0
-151 -187 -157 -115 0
-151 -187 -157 -145 0
-151 -187 -115 -145 0
-151 -157 -115 -145 0
-152 -188 -158 -116 0
-152 -188 -158 -146 0
-152 -188 -116 -146 0
-152 -158 -116 -146 0
-153 -189 -159 -117 0
-153 -189 -159 -147 0
-153 -189 -117 -147 0
-153 -159 -117 -147 0
-154 -190 -160 -118 0
-154 -190 -160 -148 0
-154 -190 -118 -148 0
-154 -160 -118 -148 0
-155 -191 -161 -119 0
-155 -191 -161 -149 0
-155 -191 -119 -149 0
-155 -161 -119 -149 0
-156 -192 -162 -120 0
-156 -192 -162 -150 0
-156 -192 -120 -150 0
-156 -162 -120 -150 0
157 158 159 160 161 162 0
-292 -293 0
-292 -294 0
-293 -294 0
-295 -296 0
-157 292 0
-157 295 0
-158 292 0
-158 296 0
-159 293 0
-159 295 0
-160 293 0
-160 296 0
-161 294 0
-161 295 0
-162 294 0
-162 296 0
-157 193 163 121 0
-157 193 163 151 0
-157 193 121 151 0
-157 163 121 151 0
-158 194 164 122 0
-158 194 164 152 0
-158 194 122 152 0
-158 164 122 152 0
-159 195 165 123 0
-159 195 165 153 0
-159 195 123 153 0
-159 165 123 153 0
-160 196 166 124 0
-160 196 166 154 0
-160 196 124 154 0
-160 166 124 154 0
-161 197 167 125 0
-161 197 167 155 0
-161 197 125 155 0
-161 167 125 155 0
-162 198 168 126 0
-162 198 168 156 0
-162 198 126 156 0
-162 168 126 156 0
-157 -193 -163 -121 0
-157 -193 -163 -151 0
-157 -193 -121 -151 0
-157 -163 -121 -151 0
-158 -194 -164 -122 0
-158 -194 -164 -152 0
-158 -194 -122 -152 0
-158 -164 -122 -152 0
-159 -195 -165 -123 0
-159 -195 -165 -153 0
-159 -195 -123 -153 0
-159 -165 -123 -153 0
-160 -196 -166 -124 0
-160 -196 -166 -154 0
-160 -196 -124 -154 0
-160 -166 -124 -154 0
-161 -197 -167 -125 0
-161 -197 -167 -155 0
-161 -197 -125 -155 0
-161 -167 -125 -155 0
-162 -198 -168 -126 0
-162 -198 -168 -156 0
-162 -198 -126 -156 0
-162 -168 -126 -156 0
163 164 165 166 167 168 0
-297 -298 0
-297 -299 0
-298 -299 0
-300 -301 0
-163 297 0
-163 300 0
-164 297 0
-164 301 0
-165 298 0
-165 300 0
-166 298 0
-166 301 0
-167 299 0
-167 300 0
-168 299 0
-168 301 0
-163 199 169 127 0
-163 199 169 157 0
-163 199 127 157 0
-163 169 127 157 0
-164 200 170 128 0
-164 200 170 158 0
-164 200 128 158 0
-164 170 128 158 0
-165 201 171 129 0
-165 201 171 159 0
-165 201 129 159 0
-165 171 129 159 0
-166 202 172 130 0
-166 202 172 160 0
-166 202 130 160 0
-166 172 130 160 0
-167 203 173 131 0
-167 203 173 161 0
-167 203 131 161 0
-167 173 131 161 0
-168 204 174 132 0
-168 204 174 162 0
-168 204 132 162 0
-168 174 132 162 0
-163 -199 -169 -127 0
-163 -199 -169 -157 0
-163 -199 -127 -157 0
-163 -169 -127 -157 0
-164 -200 -170 -128 0
-164 -200 -170 -158 0
-164 -200 -128 -158 0
-164 -170 -128 -158 0
-165 -201 -171 -129 0
-165 -201 -171 -159 0
-165 -201 -129 -159 0
-165 -171 -129 -159 0
-166 -202 -172 -130 0
-166 -202 -172 -160 0
-166 -202 -130 -160 0
-166 -172 -130 -160 0
-167 -203 -173 -131 0
-167 -203 -173 -161 0
-167 -203 -131 -161 0
-167 -173 -131 -161 0
-168 -204 -174 -132 0
-168 -204 -174 -162 0
-168 -204 -132 -162 0
-168 -174 -132 -162 0
174 0
-169 0
-170 0
-171 0
-172 0
-173 0
210 180 138 168 0
-210 -180 0
-210 -138 0
-210 -168 0
-180 -138 0
-180 -168 0
-138 -168 0
175 176 177 178 179 180 0
-302 -303 0
-302 -304 0
-303 -304 0
-305 -306 0
-175 302 0
-175 305 0
-176 302 0
-176 306 0
-177 303 0
-177 305 0
-178 303 0
-178 306 0
-179 304 0
-179 305 0
-180 304 0
-180 306 0
-175 211 169 0
-175 211 139 0
-175 169 139 0
-176 212 170 0
-176 212 140 0
-176 170 140 0
-177 213 171 0
-177 213 141 0
-177 171 141 0
-178 214 172 0
-178 214 142 0
-178 172 142 0
-179 215 173 0
-179 215 143 0
-179 173 143 0
-180 216 174 0
-180 216 144 0
-180 174 144 0
-175 -211 -169 -139 0
-176 -212 -170 -140 0
-177 -213 -171 -141 0
-178 -214 -172 -142 0
-179 -215 -173 -143 0
-180 -216 -174 -144 0
181 182 183 184 185 186 0
-307 -308 0
-307 -309 0
-308 -309 0
-310 -311 0
-181 307 0
-181 310 0
-182 307 0
-182 311 0
-183 308 0
-183 310 0
-184 308 0
-184 311 0
-185 309 0
-185 310 0
-186 309 0
-186 311 0
-181 145 0
-181 187 0
-182 146 0
-182 188 0
-183 147 0
-183 189 0
-184 148 0
-184 190 0
-185 149 0
-185 191 0
-186 150 0
-186 192 0
187 188 189 190 191 192 0
-312 -313 0
-312 -314 0
-313 -314 0
-315 -316 0
-187 312 0
-187 315 0
-188 312 0
-188 316 0
-189 313 0
-189 315 0
-190 313 0
-190 316 0
-191 314 0
-191 315 0
-192 314 0
-192 316 0
-187 151 193 0
-187 151 181 0
-187 193 181 0
-188 152 194 0
-188 152 182 0
-188 194 182 0
-189 153 195 0
-189 153 183 0
-189 195 183 0
-190 154 196 0
-190 154 184 0
-190 196 184 0
-191 155 197 0
-191 155 185 0
-191 197 185 0
-192 156 198 0
-192 156 186 0
-192 198 186 0
-187 -151 -193 -181 0
-188 -152 -194 -182 0
-189 -153 -195 -183 0
-190 -154 -196 -184 0
-191 -155 -197 -185 0
-192 -156 -198 -186 0
193 194 195 196 197 198 0
-317 -318 0
-317 -319 0
-318 -319 0
-320 -321 0
-193 317 0
-193 320 0
-194 317 0
-194 321 0
-195 318 0
-195 320 0
-196 318 0
-196 321 0
-197 319 0
-197 320 0
-198 319 0
-198 321 0
-193 157 199 0
-193 157 187 0
-193 199 187 0
-194 158 200 0
-194 158 188 0
-194 200 188 0
-195 159 201 0
-195 159 189 0
-195 201 189 0
-196 160 202 0
-196 160 190 0
-196 202 190 0
-197 161 203 0
-197 161 191 0
-197 203 191 0
-198 162 204 0
-198 162 192 0
-198 204 192 0
-193 -157 -199 -187 0
-194 -158 -200 -188 0
-195 -159 -201 -189 0
-196 -160 -202 -190 0
-197 -161 -203 -191 0
-198 -162 -204 -192 0
199 200 201 202 203 204 0
-322 -323 0
-322 -324 0
-323 -324 0
-325 -326 0
-199 322 0
-199 325 0
-200 322 0
-200 326 0
-201 323 0
-201 325 0
-202 323 0
-202 326 0
-203 324 0
-203 325 0
-204 324 0
-204 326 0
-199 163 205 0
-199 163 193 0
-199 205 193 0
-200 164 206 0
-200 164 194 0
-200 206 194 0
-201 165 207 0
-201 165 195 0
-201 207 195 0
-202 166 208 0
-202 166 196 0
-202 208 196 0
-203 167 209 0
-203 167 197 0
-203 209 197 0
-204 168 210 0
-204 168 198 0
-204 210 198 0
-199 -163 -205 -193 0
-200 -164 -206 -194 0
-201 -165 -207 -195 0
-202 -166 -208 -196 0
-203 -167 -209 -197 0
-204 -168 -210 -198 0
205 206 207 208 209 210 0
-327 -328 0
-327 -329 0
-328 -329 0
-330 -331 0
-205 327 0
-205 330 0
-206 327 0
-206 331 0
-207 328 0
-207 330 0
-208 328 0
-208 331 0
-209 329 0
-209 330 0
-210 329 0
-210 331 0
-205 169 211 0
-205 169 199 0
-205 211 199 0
-206 170 212 0
-206 170 200 0
-206 212 200 0
-207 171 213 0
-207 171 201 0
-207 213 201 0
-208 172 214 0
-208 172 202 0
-208 214 202 0
-209 173 215 0
-209 173 203 0
-209 215 203 0
-210 174 216 0
-210 174 204 0
-210 216 204 0
-205 -169 -211 -199 0
-206 -170 -212 -200 0
-207 -171 -213 -201 0
-208 -172 -214 -202 0
-209 -173 -215 -203 0
-210 -174 -216 -204 0
211 212 213 214 215 216 0
-332 -333 0
-332 -334 0
-333 -334 0
-335 -336 0
-211 332 0
-211 335 0
-212 332 0
-212 336 0
-213 333 0
-213 335 0
-214 333 0
-214 336 0
-215 334 0
-215 335 0
-216 334 0
-216 336 0
-211 175 0
-211 205 0
-212 176 0
-212 206 0
-213 177 0
-213 207 0
-214 178 0
-214 208 0
-215 179 0
-215 209 0
-216 180 0
-216 210 0
7 43 79 151 187 0
13 121 157 193 0
19 55 127 163 199 0
25 97 133 205 0
8 44 80 152 188 0
22 58 130 166 202 0
28 100 136 208 0
11 47 83 155 191 0
17 125 161 197 0
23 59 131 167 203 0
29 101 137 209 0
18 126 162 198 0
24 60 132 168 204 0